(set-logic QF_LRA)
(declare-fun X0 () Real )
(declare-fun Y0 () Real )
(declare-fun X1 () Real )
(declare-fun Y1 () Real )
(declare-fun X2 () Real )
(declare-fun Y2 () Real )
(declare-fun X3 () Real )
(declare-fun Y3 () Real )
(declare-fun X4 () Real )
(declare-fun Y4 () Real )
(declare-fun X5 () Real )
(declare-fun Y5 () Real )
(declare-fun X6 () Real )
(declare-fun Y6 () Real )
(declare-fun X7 () Real )
(declare-fun Y7 () Real )
(declare-fun X8 () Real )
(declare-fun Y8 () Real )
(declare-fun Z () Real )
(assert ( and  
( or ( <= ( + X0 51 ) X1 )  ( <= ( + X1 77 ) X0 )  ( <= ( + Y0 77 ) Y1 )  ( <= ( + Y1 42 ) Y0 )  )
( or ( <= ( + X0 51 ) X2 )  ( <= ( + X2 98 ) X0 )  ( <= ( + Y0 77 ) Y2 )  ( <= ( + Y2 74 ) Y0 )  )
( or ( <= ( + X0 51 ) X3 )  ( <= ( + X3 12 ) X0 )  ( <= ( + Y0 77 ) Y3 )  ( <= ( + Y3 3 ) Y0 )  )
( or ( <= ( + X0 51 ) X4 )  ( <= ( + X4 92 ) X0 )  ( <= ( + Y0 77 ) Y4 )  ( <= ( + Y4 26 ) Y0 )  )
( or ( <= ( + X0 51 ) X5 )  ( <= ( + X5 77 ) X0 )  ( <= ( + Y0 77 ) Y5 )  ( <= ( + Y5 98 ) Y0 )  )
( or ( <= ( + X0 51 ) X6 )  ( <= ( + X6 38 ) X0 )  ( <= ( + Y0 77 ) Y6 )  ( <= ( + Y6 57 ) Y0 )  )
( or ( <= ( + X0 51 ) X7 )  ( <= ( + X7 81 ) X0 )  ( <= ( + Y0 77 ) Y7 )  ( <= ( + Y7 92 ) Y0 )  )
( or ( <= ( + X0 51 ) X8 )  ( <= ( + X8 81 ) X0 )  ( <= ( + Y0 77 ) Y8 )  ( <= ( + Y8 18 ) Y0 )  )
( or ( <= ( + X1 77 ) X2 )  ( <= ( + X2 98 ) X1 )  ( <= ( + Y1 42 ) Y2 )  ( <= ( + Y2 74 ) Y1 )  )
( or ( <= ( + X1 77 ) X3 )  ( <= ( + X3 12 ) X1 )  ( <= ( + Y1 42 ) Y3 )  ( <= ( + Y3 3 ) Y1 )  )
( or ( <= ( + X1 77 ) X4 )  ( <= ( + X4 92 ) X1 )  ( <= ( + Y1 42 ) Y4 )  ( <= ( + Y4 26 ) Y1 )  )
( or ( <= ( + X1 77 ) X5 )  ( <= ( + X5 77 ) X1 )  ( <= ( + Y1 42 ) Y5 )  ( <= ( + Y5 98 ) Y1 )  )
( or ( <= ( + X1 77 ) X6 )  ( <= ( + X6 38 ) X1 )  ( <= ( + Y1 42 ) Y6 )  ( <= ( + Y6 57 ) Y1 )  )
( or ( <= ( + X1 77 ) X7 )  ( <= ( + X7 81 ) X1 )  ( <= ( + Y1 42 ) Y7 )  ( <= ( + Y7 92 ) Y1 )  )
( or ( <= ( + X1 77 ) X8 )  ( <= ( + X8 81 ) X1 )  ( <= ( + Y1 42 ) Y8 )  ( <= ( + Y8 18 ) Y1 )  )
( or ( <= ( + X2 98 ) X3 )  ( <= ( + X3 12 ) X2 )  ( <= ( + Y2 74 ) Y3 )  ( <= ( + Y3 3 ) Y2 )  )
( or ( <= ( + X2 98 ) X4 )  ( <= ( + X4 92 ) X2 )  ( <= ( + Y2 74 ) Y4 )  ( <= ( + Y4 26 ) Y2 )  )
( or ( <= ( + X2 98 ) X5 )  ( <= ( + X5 77 ) X2 )  ( <= ( + Y2 74 ) Y5 )  ( <= ( + Y5 98 ) Y2 )  )
( or ( <= ( + X2 98 ) X6 )  ( <= ( + X6 38 ) X2 )  ( <= ( + Y2 74 ) Y6 )  ( <= ( + Y6 57 ) Y2 )  )
( or ( <= ( + X2 98 ) X7 )  ( <= ( + X7 81 ) X2 )  ( <= ( + Y2 74 ) Y7 )  ( <= ( + Y7 92 ) Y2 )  )
( or ( <= ( + X2 98 ) X8 )  ( <= ( + X8 81 ) X2 )  ( <= ( + Y2 74 ) Y8 )  ( <= ( + Y8 18 ) Y2 )  )
( or ( <= ( + X3 12 ) X4 )  ( <= ( + X4 92 ) X3 )  ( <= ( + Y3 3 ) Y4 )  ( <= ( + Y4 26 ) Y3 )  )
( or ( <= ( + X3 12 ) X5 )  ( <= ( + X5 77 ) X3 )  ( <= ( + Y3 3 ) Y5 )  ( <= ( + Y5 98 ) Y3 )  )
( or ( <= ( + X3 12 ) X6 )  ( <= ( + X6 38 ) X3 )  ( <= ( + Y3 3 ) Y6 )  ( <= ( + Y6 57 ) Y3 )  )
( or ( <= ( + X3 12 ) X7 )  ( <= ( + X7 81 ) X3 )  ( <= ( + Y3 3 ) Y7 )  ( <= ( + Y7 92 ) Y3 )  )
( or ( <= ( + X3 12 ) X8 )  ( <= ( + X8 81 ) X3 )  ( <= ( + Y3 3 ) Y8 )  ( <= ( + Y8 18 ) Y3 )  )
( or ( <= ( + X4 92 ) X5 )  ( <= ( + X5 77 ) X4 )  ( <= ( + Y4 26 ) Y5 )  ( <= ( + Y5 98 ) Y4 )  )
( or ( <= ( + X4 92 ) X6 )  ( <= ( + X6 38 ) X4 )  ( <= ( + Y4 26 ) Y6 )  ( <= ( + Y6 57 ) Y4 )  )
( or ( <= ( + X4 92 ) X7 )  ( <= ( + X7 81 ) X4 )  ( <= ( + Y4 26 ) Y7 )  ( <= ( + Y7 92 ) Y4 )  )
( or ( <= ( + X4 92 ) X8 )  ( <= ( + X8 81 ) X4 )  ( <= ( + Y4 26 ) Y8 )  ( <= ( + Y8 18 ) Y4 )  )
( or ( <= ( + X5 77 ) X6 )  ( <= ( + X6 38 ) X5 )  ( <= ( + Y5 98 ) Y6 )  ( <= ( + Y6 57 ) Y5 )  )
( or ( <= ( + X5 77 ) X7 )  ( <= ( + X7 81 ) X5 )  ( <= ( + Y5 98 ) Y7 )  ( <= ( + Y7 92 ) Y5 )  )
( or ( <= ( + X5 77 ) X8 )  ( <= ( + X8 81 ) X5 )  ( <= ( + Y5 98 ) Y8 )  ( <= ( + Y8 18 ) Y5 )  )
( or ( <= ( + X6 38 ) X7 )  ( <= ( + X7 81 ) X6 )  ( <= ( + Y6 57 ) Y7 )  ( <= ( + Y7 92 ) Y6 )  )
( or ( <= ( + X6 38 ) X8 )  ( <= ( + X8 81 ) X6 )  ( <= ( + Y6 57 ) Y8 )  ( <= ( + Y8 18 ) Y6 )  )
( or ( <= ( + X7 81 ) X8 )  ( <= ( + X8 81 ) X7 )  ( <= ( + Y7 92 ) Y8 )  ( <= ( + Y8 18 ) Y7 )  )
( >= X0 0)
( <= ( + X0 51) Z)
( >= Y0 0)
( <= ( + Y0 77 ) 100)
( >= X1 0)
( <= ( + X1 77) Z)
( >= Y1 0)
( <= ( + Y1 42 ) 100)
( >= X2 0)
( <= ( + X2 98) Z)
( >= Y2 0)
( <= ( + Y2 74 ) 100)
( >= X3 0)
( <= ( + X3 12) Z)
( >= Y3 0)
( <= ( + Y3 3 ) 100)
( >= X4 0)
( <= ( + X4 92) Z)
( >= Y4 0)
( <= ( + Y4 26 ) 100)
( >= X5 0)
( <= ( + X5 77) Z)
( >= Y5 0)
( <= ( + Y5 98 ) 100)
( >= X6 0)
( <= ( + X6 38) Z)
( >= Y6 0)
( <= ( + Y6 57 ) 100)
( >= X7 0)
( <= ( + X7 81) Z)
( >= Y7 0)
( <= ( + Y7 92 ) 100)
( >= X8 0)
( <= ( + X8 81) Z)
( >= Y8 0)
( <= ( + Y8 18 ) 100)
) )
(minimize Z)
(check-sat)
